p wcnf 179 90 91 
1 102 62 0 
1 -2 135 0 
1 147 157 0 
1 105 -112 0 
1 -163 -46 0 
1 126 123 0 
1 -38 80 0 
1 -24 -80 0 
1 164 33 0 
1 64 69 0 
1 -64 27 0 
1 -163 42 0 
1 48 -1 0 
1 -108 -74 0 
1 139 -113 0 
1 38 116 0 
1 -142 133 0 
1 109 8 0 
1 -31 -56 0 
1 75 47 0 
1 92 141 0 
1 -2 153 0 
1 106 -126 0 
1 -106 92 0 
1 -140 13 0 
1 -50 7 0 
1 -34 -17 0 
1 65 45 0 
1 9 46 0 
1 151 167 0 
1 -152 -110 0 
1 108 114 0 
1 90 107 0 
1 -19 -94 0 
1 113 -146 0 
1 -105 11 0 
1 93 81 0 
1 98 37 0 
1 90 -94 0 
1 63 -15 0 
1 -124 -88 0 
1 138 -4 0 
1 -79 -9 0 
1 119 133 0 
1 -69 7 0 
1 -48 -27 0 
1 32 -56 0 
1 -179 -96 0 
1 -33 -66 0 
1 142 137 0 
1 118 -126 0 
1 -70 162 0 
1 -120 -117 0 
1 -85 79 0 
1 -37 -171 0 
1 -162 83 0 
1 -147 -34 0 
1 -174 109 0 
1 -43 -127 0 
1 86 -22 0 
1 -7 -141 0 
1 84 122 0 
1 176 67 0 
1 148 131 0 
1 -31 13 0 
1 -14 -12 0 
1 -40 134 0 
1 138 -93 0 
1 -110 -41 0 
1 -155 -102 0 
1 159 179 0 
1 -16 -63 0 
1 171 -71 0 
1 -51 87 0 
1 170 2 0 
1 153 -36 0 
1 72 -156 0 
1 -48 -14 0 
1 -83 -115 0 
1 95 76 0 
1 91 76 0 
1 53 131 0 
1 136 50 0 
1 -151 -108 0 
1 -114 55 0 
1 -8 121 0 
1 -6 -140 0 
1 120 42 0 
1 -144 -120 0 
1 108 -67 0 
